50
1 17 -11
2 18 17
3 9 -10
4 16 -15
5 7 -12
6 11 7
7 10 -22
8 -10 -19
9 14 18
10 -14 21
11 8 -8
12 22 -24
13 -1 -21
14 -16 9
15 -22 -13
16 6 9
17 6 14
18 -18 1
19 18 23
20 12 -6
21 -10 15
22 -19 12
23 -24 -2
24 20 13
25 -19 2
26 -23 9
27 -9 -22
28 -7 7
29 -17 12
30 12 7
31 -23 -8
32 1 -2
33 -17 1
34 -25 -19
35 13 16
36 17 0
37 8 15
38 -8 -4
39 -10 22
40 -7 -14
41 0 -17
42 -16 8
43 10 12
44 -2 6
45 24 -10
46 -18 10
47 -6 -1
48 2 -2
49 -13 -14
50 8 -18
